0  500 500
1  513 714
2  570 348
3  93  807
4  52  705
5  35  319
6  80  797
7  167 395
8  812 120
9  37  583
10 672 272
11 716 356
12 769 932
13 660 402
14 304 161
15 829 649
16 451 593
17 92  217
18 418 290
19 532 496
20 397 443
21 564 994
22 228 718
23 587 846
24 992 762
25 529 824
26 373 865
27 108 982
28 452 167
29 963 181
30 584 544
31 477 954
32 426 643
33 205 947
34 230 764
35 294 88
36 27  932
37 827 933
38 569 980
39 871 618
40 469 326
41 492 826
42 487 172
43 682 860
44 45  97
45 582 614
46 491 971
47 327 871